# LAMMPS parameter file 
# Created using atb2lammps 
# https://github.com/simongravelle/atb2lammps

mass 1 12.011 
mass 2 1.008 

pair_coeff 1 1 0.06630155 3.5811794 
pair_coeff 1 2 0.04331183 2.9154074 
pair_coeff 2 2 0.028293679 2.373408 

bond_coeff 1 1109.2926 1.12 
bond_coeff 2 498.87714 1.33 
bond_coeff 3 299.97592 1.48 
bond_coeff 4 299.84396 1.52 
bond_coeff 5 349.92828 1.1 
bond_coeff 6 203.15488 1.51 

angle_coeff 1 30.173132 109.5 
angle_coeff 2 47.634956 109.6 
angle_coeff 3 55.113907 111.0 
angle_coeff 4 45.187126 120.0 
angle_coeff 5 49.997955 126.0 
angle_coeff 6 65.47197 111.3 
angle_coeff 7 55.02469 106.75 
angle_coeff 8 47.501896 108.53 
angle_coeff 9 54.993103 110.3 
angle_coeff 10 156.9219 114.0 
angle_coeff 11 298.15164 107.0 

dihedral_coeff 1 9.990439 -1 2 
dihedral_coeff 2 1.414914 1 3 
dihedral_coeff 3 0.23900573 -1 6 
dihedral_coeff 4 0.0 1 1 

improper_coeff 1 20.007544 0.0 

