# LAMMPS parameter file 
# Created using atb2lammps 
# https://github.com/simongravelle/atb2lammps

mass 1 12.011 
mass 2 1.008 
mass 3 1.008 
mass 4 15.9994 
mass 5 28.08 

pair_coeff 1 1 0.06630155 3.5811794 
pair_coeff 1 2 0.04331183 2.9154074 
pair_coeff 2 2 0.028293679 2.373408 
pair_coeff 1 3 0.0 0.0 
pair_coeff 2 3 0.0 0.0 
pair_coeff 3 3 0.0 0.0 
pair_coeff 1 4 0.088985994 3.4895427 
pair_coeff 2 4 0.058130562 2.8408067 
pair_coeff 3 4 0.0 0.0 
pair_coeff 4 4 0.119431704 3.400251 
pair_coeff 1 5 0.1969066 3.482 
pair_coeff 2 5 0.12863027 2.8346663 
pair_coeff 3 5 0.0 0.0 
pair_coeff 4 5 0.26427633 3.3929012 
pair_coeff 5 5 0.5847859 3.3855674 

bond_coeff 1 349.27414 1.09 
bond_coeff 2 300.0447 1.87 
bond_coeff 3 179.2543 0.971 
bond_coeff 4 203.15488 1.67 
bond_coeff 5 191.20459 1.66 

angle_coeff 1 50.17089 108.0 
angle_coeff 2 47.69405 109.5 
angle_coeff 3 55.0234 111.4 
angle_coeff 4 321.6899 147.0 

dihedral_coeff 1 0.25095603 1 3 
dihedral_coeff 2 1.414914 1 3 
dihedral_coeff 3 0.23900573 -1 3 
dihedral_coeff 4 0.0 1 1 

