# LAMMPS parameter file 
# Created using atb2lammps 
# https://github.com/simongravelle/atb2lammps

mass 1 15.9994 
mass 2 15.9994 
mass 3 1.008 
mass 4 12.011 

pair_coeff 1 1 0.41229546 2.625854 
pair_coeff 1 2 0.13533725 3.1615674 
pair_coeff 2 2 0.20306103 2.9548419 
pair_coeff 1 3 0.0 0.0 
pair_coeff 2 3 0.0 0.0 
pair_coeff 3 3 0.0 0.0 
pair_coeff 1 4 0.31783628 2.717064 
pair_coeff 2 4 0.24880801 2.8302386 
pair_coeff 3 4 0.0 0.0 
pair_coeff 4 4 0.24501823 2.8114421 

bond_coeff 1 500.41827 1.25 
bond_coeff 2 399.79163 1.43 
bond_coeff 3 442.1606 0.972 

angle_coeff 1 47.69405 109.5 
angle_coeff 2 60.165993 126.0 
angle_coeff 3 286.38248 113.0 

dihedral_coeff 1 1.6993308 -1 2 
dihedral_coeff 2 0.0 1 1 

improper_coeff 1 20.007544 0.0 

