# LAMMPS parameter file 
# Created using atb2lammps 
# https://github.com/simongravelle/atb2lammps

mass 1 12.011 
mass 2 1.008 

pair_coeff 1 1 0.06630155 3.5811794 
pair_coeff 1 2 0.04331183 2.9154074 
pair_coeff 2 2 0.028293679 2.373408 

bond_coeff 1 1109.2926 1.12 
bond_coeff 2 299.84396 1.52 
bond_coeff 3 203.15488 1.51 

angle_coeff 1 30.173132 109.5 
angle_coeff 2 47.634956 109.6 
angle_coeff 3 55.113907 111.0 
angle_coeff 4 47.501896 108.53 
angle_coeff 5 54.993103 110.3 
angle_coeff 6 180.46019 109.0 
angle_coeff 7 298.15164 107.0 

dihedral_coeff 1 1.414914 1 3 
dihedral_coeff 2 0.0 1 1 

